proyfinal/src/viki/013/experimentInOfficeAgust.take6.output/c237f600-bbfe-4af2-93d9-26272f4b9815.als.dat
{'cnf.clauses': '118081',
 'cnf.totvars': '69608',
 'conflict literals': '3149',
 'conflicts': '303',
 'decisions': '8232',
 'memused.mb': '17.11',
 'outcome': 'UNSAT',
 'propagations': '470503',
 'restarts': '3',
 'solver.msecs': 60,
 'task.msecs': 121}
