proyfinal/src/viki/013/experimentInOfficeAgust.take6.output/c237f600-bbfe-4af2-93d9-26272f4b9815.als.out
Reading from standard input... Use '--help' for help.
============================[ Problem Statistics ]=============================
|                                                                             |
|  Number of variables:         69608                                         |
|  Number of clauses:          118081                                         |
|  Parse time:                   0.03 s                                       |
|                                                                             |
============================[ Search Statistics ]==============================
| Conflicts |          ORIGINAL         |          LEARNT          | Progress |
|           |    Vars  Clauses Literals |    Limit  Clauses Lit/Cl |          |
===============================================================================
|       100 |   57076    81975   202938 |    30057       99     13 | 18.004 % |
|       250 |   56953    81864   202646 |    33063      244     11 | 18.180 % |
===============================================================================
restarts              : 3
conflicts             : 303            (4992 /sec)
decisions             : 8232           (0.00 % random) (135620 /sec)
propagations          : 470503         (7751413 /sec)
conflict literals     : 3149           (25.99 % deleted)
Memory used           : 17.11 MB
CPU time              : 0.060699 s

UNSATISFIABLE
